(benchmark gametime
:status unknown
:logic QF_AUFBV
:extrafuns ((gtINDEX73  BitVec[32]))
:extrafuns ((gtFIELD__bitsForTID0__gtAGG____anonstruct_D_Work_4  Array[32:32]))
:extrafuns ((gtINDEX74  BitVec[32]))
:extrafuns ((gtAGG__rtDWork  BitVec[32]))
:extrafuns ((gtINDEX71  BitVec[32]))
:extrafuns ((gtINDEX72  BitVec[32]))
:extrafuns ((gtINDEX69  BitVec[32]))
:extrafuns ((gtINDEX70  BitVec[32]))
:extrafuns ((gtINDEX67  BitVec[32]))
:extrafuns ((gtINDEX68  BitVec[32]))
:extrafuns ((gtINDEX66  BitVec[32]))
:extrafuns ((gtINDEX65  BitVec[32]))
:extrafuns ((gtINDEX64  BitVec[32]))
:extrafuns ((gtINDEX63  BitVec[32]))
:extrafuns ((gtINDEX61  BitVec[32]))
:extrafuns ((gtINDEX62  BitVec[32]))
:extrafuns ((gtINDEX59  BitVec[32]))
:extrafuns ((gtINDEX60  BitVec[32]))
:extrafuns ((gtINDEX57  BitVec[32]))
:extrafuns ((gtINDEX58  BitVec[32]))
:extrafuns ((gtINDEX56  BitVec[32]))
:extrafuns ((gtINDEX54  BitVec[32]))
:extrafuns ((gtINDEX55  BitVec[32]))
:extrafuns ((gtINDEX52  BitVec[32]))
:extrafuns ((gtINDEX53  BitVec[32]))
:extrafuns ((gtINDEX50  BitVec[32]))
:extrafuns ((gtINDEX51  BitVec[32]))
:extrafuns ((gtINDEX48  BitVec[32]))
:extrafuns ((gtINDEX49  BitVec[32]))
:extrafuns ((gtINDEX46  BitVec[32]))
:extrafuns ((gtINDEX47  BitVec[32]))
:extrafuns ((gtINDEX44  BitVec[32]))
:extrafuns ((gtINDEX45  BitVec[32]))
:extrafuns ((gtINDEX42  BitVec[32]))
:extrafuns ((gtINDEX43  BitVec[32]))
:extrafuns ((gtINDEX40  BitVec[32]))
:extrafuns ((gtINDEX41  BitVec[32]))
:extrafuns ((gtINDEX39  BitVec[32]))
:extrafuns ((gtINDEX37  BitVec[32]))
:extrafuns ((gtINDEX38  BitVec[32]))
:extrafuns ((gtINDEX36  BitVec[32]))
:extrafuns ((gtINDEX34  BitVec[32]))
:extrafuns ((gtINDEX35  BitVec[32]))
:extrafuns ((gtINDEX32  BitVec[32]))
:extrafuns ((gtINDEX33  BitVec[32]))
:extrafuns ((gtINDEX31  BitVec[32]))
:extrafuns ((gtINDEX30  BitVec[32]))
:extrafuns ((gtINDEX29  BitVec[32]))
:extrafuns ((gtINDEX28  BitVec[32]))
:extrafuns ((gtINDEX27  BitVec[32]))
:extrafuns ((gtINDEX25  BitVec[32]))
:extrafuns ((gtINDEX26  BitVec[32]))
:extrafuns ((gtINDEX23  BitVec[32]))
:extrafuns ((gtINDEX24  BitVec[32]))
:extrafuns ((gtINDEX21  BitVec[32]))
:extrafuns ((gtINDEX22  BitVec[32]))
:extrafuns ((gtINDEX20  BitVec[32]))
:extrafuns ((gtINDEX18  BitVec[32]))
:extrafuns ((gtINDEX19  BitVec[32]))
:extrafuns ((gtINDEX16  BitVec[32]))
:extrafuns ((gtINDEX17  BitVec[32]))
:extrafuns ((gtINDEX14  BitVec[32]))
:extrafuns ((gtINDEX15  BitVec[32]))
:extrafuns ((gtINDEX12  BitVec[32]))
:extrafuns ((gtINDEX13  BitVec[32]))
:extrafuns ((gtINDEX10  BitVec[32]))
:extrafuns ((gtINDEX11  BitVec[32]))
:extrafuns ((gtINDEX8  BitVec[32]))
:extrafuns ((gtINDEX9  BitVec[32]))
:extrafuns ((gtINDEX6  BitVec[32]))
:extrafuns ((gtINDEX7  BitVec[32]))
:extrafuns ((gtINDEX4  BitVec[32]))
:extrafuns ((gtINDEX5  BitVec[32]))
:extrafuns ((gtINDEX2  BitVec[32]))
:extrafuns ((gtINDEX3  BitVec[32]))
:extrafuns ((gtINDEX0  BitVec[32]))
:extrafuns ((gtINDEX1  BitVec[32]))
:extrafuns ((gtFIELD__is_Eng__gtAGG____anonstruct_bitsForTID0_5_1_  Array[32:1]))
:extrafuns ((gtFIELD__is_Eng__gtAGG____anonstruct_bitsForTID0_5_2_  Array[32:1]))
:extrafuns ((sf_previousEvent_1_  BitVec[32]))
:extrafuns ((sfEvent__2_  BitVec[32]))
:extrafuns ((gtFIELD__is_Eng__gtAGG____anonstruct_bitsForTID0_5  Array[32:1]))
:extrafuns ((gtFIELD__sent__gtAGG____anonstruct_D_Work_4_1_  Array[32:32]))
:extrafuns ((gtFIELD__sent__gtAGG____anonstruct_D_Work_4_2_  Array[32:32]))
:extrafuns ((gtFIELD__is_active_Eng__gtAGG____anonstruct_bitsForTID0_5  Array[32:1]))
:extrafuns ((gtFIELD__is_active_PURI__gtAGG____anonstruct_bitsForTID0_5  Array[32:1]))
:extrafuns ((gtFIELD__is_PVRP__gtAGG____anonstruct_bitsForTID0_5  Array[32:2]))
:extrafuns ((gtFIELD__is_active_PVRP__gtAGG____anonstruct_bitsForTID0_5  Array[32:1]))
:extrafuns ((gtFIELD__is_active_PPVARP__gtAGG____anonstruct_bitsForTID0_5  Array[32:1]))
:extrafuns ((gtFIELD__is_PLRI__gtAGG____anonstruct_bitsForTID0_5_1_  Array[32:2]))
:extrafuns ((gtFIELD__is_PLRI__gtAGG____anonstruct_bitsForTID0_5_2_  Array[32:2]))
:extrafuns ((gtFIELD__is_active_PLRI__gtAGG____anonstruct_bitsForTID0_5  Array[32:1]))
:extrafuns ((gtFIELD__temporalCounter_i1__gtAGG____anonstruct_D_Work_4  Array[32:32]))
:extrafuns ((gtFIELD__temporalCounter_i1__gtAGG____anonstruct_D_Work_4_1_  Array[32:32]))
:extrafuns ((gtFIELD__is_PAVI__gtAGG____anonstruct_bitsForTID0_5  Array[32:3]))
:extrafuns ((gtFIELD__is_PAVI__gtAGG____anonstruct_bitsForTID0_5_1_  Array[32:3]))
:extrafuns ((gtFIELD__n_t__gtAGG____anonstruct_D_Work_4  Array[32:32]))
:extrafuns ((gtFIELD__n_t__gtAGG____anonstruct_D_Work_4_1_  Array[32:32]))
:extrafuns ((sfEvent__1_  BitVec[32]))
:extrafuns ((gtFIELD__is_active_PAVI__gtAGG____anonstruct_bitsForTID0_5  Array[32:1]))
:extrafuns ((sfEvent_  BitVec[32]))
:extrafuns ((gtFIELD__sent__gtAGG____anonstruct_D_Work_4  Array[32:32]))
:extrafuns ((gtFIELD__is_PLRI__gtAGG____anonstruct_bitsForTID0_5  Array[32:2]))
:extrapreds ((constraint126 ))
:extrapreds ((constraint125 ))
:extrapreds ((constraint124 ))
:extrapreds ((constraint123 ))
:extrapreds ((constraint122 ))
:extrapreds ((constraint121 ))
:extrapreds ((constraint120 ))
:extrapreds ((constraint119 ))
:extrapreds ((constraint118 ))
:extrapreds ((constraint117 ))
:extrapreds ((constraint116 ))
:extrapreds ((constraint115 ))
:extrapreds ((constraint114 ))
:extrapreds ((constraint113 ))
:extrapreds ((constraint112 ))
:extrapreds ((constraint111 ))
:extrapreds ((constraint110 ))
:extrapreds ((constraint109 ))
:extrapreds ((constraint108 ))
:extrapreds ((constraint107 ))
:extrapreds ((constraint106 ))
:extrapreds ((constraint105 ))
:extrapreds ((constraint104 ))
:extrapreds ((constraint103 ))
:extrapreds ((constraint102 ))
:extrapreds ((constraint101 ))
:extrapreds ((constraint100 ))
:extrapreds ((constraint99 ))
:extrapreds ((constraint98 ))
:extrapreds ((constraint97 ))
:extrapreds ((constraint96 ))
:extrapreds ((constraint95 ))
:extrapreds ((constraint94 ))
:extrapreds ((constraint93 ))
:extrapreds ((constraint92 ))
:extrapreds ((constraint91 ))
:extrapreds ((constraint90 ))
:extrapreds ((constraint89 ))
:extrapreds ((constraint88 ))
:extrapreds ((constraint87 ))
:extrapreds ((constraint86 ))
:extrapreds ((constraint85 ))
:extrapreds ((constraint84 ))
:extrapreds ((constraint83 ))
:extrapreds ((constraint82 ))
:extrapreds ((constraint81 ))
:extrapreds ((constraint80 ))
:extrapreds ((constraint79 ))
:extrapreds ((constraint78 ))
:extrapreds ((constraint77 ))
:extrapreds ((constraint76 ))
:extrapreds ((constraint75 ))
:extrapreds ((constraint74 ))
:extrapreds ((constraint73 ))
:extrapreds ((constraint72 ))
:extrapreds ((constraint71 ))
:extrapreds ((constraint70 ))
:extrapreds ((constraint69 ))
:extrapreds ((constraint68 ))
:extrapreds ((constraint67 ))
:extrapreds ((constraint66 ))
:extrapreds ((constraint65 ))
:extrapreds ((constraint64 ))
:extrapreds ((constraint63 ))
:extrapreds ((constraint62 ))
:extrapreds ((constraint61 ))
:extrapreds ((constraint60 ))
:extrapreds ((constraint59 ))
:extrapreds ((constraint58 ))
:extrapreds ((constraint57 ))
:extrapreds ((constraint56 ))
:extrapreds ((constraint55 ))
:extrapreds ((constraint54 ))
:extrapreds ((constraint53 ))
:extrapreds ((constraint52 ))
:extrapreds ((constraint51 ))
:extrapreds ((constraint50 ))
:extrapreds ((constraint49 ))
:extrapreds ((constraint48 ))
:extrapreds ((constraint47 ))
:extrapreds ((constraint46 ))
:extrapreds ((constraint45 ))
:extrapreds ((constraint44 ))
:extrapreds ((constraint43 ))
:extrapreds ((constraint42 ))
:extrapreds ((constraint41 ))
:extrapreds ((constraint40 ))
:extrapreds ((constraint39 ))
:extrapreds ((constraint38 ))
:extrapreds ((constraint37 ))
:extrapreds ((constraint36 ))
:extrapreds ((constraint35 ))
:extrapreds ((constraint34 ))
:extrapreds ((constraint33 ))
:extrapreds ((constraint32 ))
:extrapreds ((constraint31 ))
:extrapreds ((constraint30 ))
:extrapreds ((constraint29 ))
:extrapreds ((constraint28 ))
:extrapreds ((constraint27 ))
:extrapreds ((constraint26 ))
:extrapreds ((constraint25 ))
:extrapreds ((constraint24 ))
:extrapreds ((constraint23 ))
:extrapreds ((constraint22 ))
:extrapreds ((constraint21 ))
:extrapreds ((constraint20 ))
:extrapreds ((constraint19 ))
:extrapreds ((constraint18 ))
:extrapreds ((constraint17 ))
:extrapreds ((constraint16 ))
:extrapreds ((constraint15 ))
:extrapreds ((constraint14 ))
:extrapreds ((constraint13 ))
:extrapreds ((constraint12 ))
:extrapreds ((constraint11 ))
:extrapreds ((constraint10 ))
:extrapreds ((constraint9 ))
:extrapreds ((constraint8 ))
:extrapreds ((constraint7 ))
:extrapreds ((constraint6 ))
:extrapreds ((constraint5 ))
:extrapreds ((constraint4 ))
:extrapreds ((constraint3 ))
:extrapreds ((constraint2 ))
:extrapreds ((constraint1 ))
:extrapreds ((constraint0 ))
:formula
(flet ($x652 (and constraint0 constraint1 constraint2 constraint3 constraint4 constraint5 constraint6 constraint7 constraint8 constraint9 constraint10 constraint11 constraint12 constraint13 constraint14 constraint15 constraint16 constraint17 constraint18 constraint19 constraint20 constraint21 constraint22 constraint23 constraint24 constraint25 constraint26 constraint27 constraint28 constraint29 constraint30 constraint31 constraint32 constraint33 constraint34 constraint35 constraint36 constraint37 constraint38 constraint39 constraint40 constraint41 constraint42 constraint43 constraint44 constraint45 constraint46 constraint47 constraint48 constraint49 constraint50 constraint51 constraint52 constraint53 constraint54 constraint55 constraint56 constraint57 constraint58 constraint59 constraint60 constraint61 constraint62 constraint63 constraint64 constraint65 constraint66 constraint67 constraint68 constraint69 constraint70 constraint71 constraint72 constraint73 constraint74 constraint75 constraint76 constraint77 constraint78 constraint79 constraint80 constraint81 constraint82 constraint83 constraint84 constraint85 constraint86 constraint87 constraint88 constraint89 constraint90 constraint91 constraint92 constraint93 constraint94 constraint95 constraint96 constraint97 constraint98 constraint99 constraint100 constraint101 constraint102 constraint103 constraint104 constraint105 constraint106 constraint107 constraint108 constraint109 constraint110 constraint111 constraint112 constraint113 constraint114 constraint115 constraint116 constraint117 constraint118 constraint119 constraint120 constraint121 constraint122 constraint123 constraint124 constraint125 constraint126))
(flet ($x396 (= gtINDEX74 (select gtFIELD__bitsForTID0__gtAGG____anonstruct_D_Work_4 gtINDEX73)))
(flet ($x392 (= gtINDEX72 (select gtFIELD__bitsForTID0__gtAGG____anonstruct_D_Work_4 gtINDEX71)))
(flet ($x388 (= gtINDEX70 (select gtFIELD__bitsForTID0__gtAGG____anonstruct_D_Work_4 gtINDEX69)))
(flet ($x384 (= gtINDEX68 (select gtFIELD__bitsForTID0__gtAGG____anonstruct_D_Work_4 gtINDEX67)))
(flet ($x376 (= gtINDEX62 (select gtFIELD__bitsForTID0__gtAGG____anonstruct_D_Work_4 gtINDEX61)))
(flet ($x372 (= gtINDEX60 (select gtFIELD__bitsForTID0__gtAGG____anonstruct_D_Work_4 gtINDEX59)))
(flet ($x368 (= gtINDEX58 (select gtFIELD__bitsForTID0__gtAGG____anonstruct_D_Work_4 gtINDEX57)))
(flet ($x363 (= gtINDEX55 (select gtFIELD__bitsForTID0__gtAGG____anonstruct_D_Work_4 gtINDEX54)))
(flet ($x359 (= gtINDEX53 (select gtFIELD__bitsForTID0__gtAGG____anonstruct_D_Work_4 gtINDEX52)))
(flet ($x355 (= gtINDEX51 (select gtFIELD__bitsForTID0__gtAGG____anonstruct_D_Work_4 gtINDEX50)))
(flet ($x351 (= gtINDEX49 (select gtFIELD__bitsForTID0__gtAGG____anonstruct_D_Work_4 gtINDEX48)))
(flet ($x347 (= gtINDEX47 (select gtFIELD__bitsForTID0__gtAGG____anonstruct_D_Work_4 gtINDEX46)))
(flet ($x343 (= gtINDEX45 (select gtFIELD__bitsForTID0__gtAGG____anonstruct_D_Work_4 gtINDEX44)))
(flet ($x339 (= gtINDEX43 (select gtFIELD__bitsForTID0__gtAGG____anonstruct_D_Work_4 gtINDEX42)))
(flet ($x335 (= gtINDEX41 (select gtFIELD__bitsForTID0__gtAGG____anonstruct_D_Work_4 gtINDEX40)))
(flet ($x330 (= gtINDEX38 (select gtFIELD__bitsForTID0__gtAGG____anonstruct_D_Work_4 gtINDEX37)))
(flet ($x325 (= gtINDEX35 (select gtFIELD__bitsForTID0__gtAGG____anonstruct_D_Work_4 gtINDEX34)))
(flet ($x321 (= gtINDEX33 (select gtFIELD__bitsForTID0__gtAGG____anonstruct_D_Work_4 gtINDEX32)))
(flet ($x312 (= gtINDEX26 (select gtFIELD__bitsForTID0__gtAGG____anonstruct_D_Work_4 gtINDEX25)))
(flet ($x308 (= gtINDEX24 (select gtFIELD__bitsForTID0__gtAGG____anonstruct_D_Work_4 gtINDEX23)))
(flet ($x304 (= gtINDEX22 (select gtFIELD__bitsForTID0__gtAGG____anonstruct_D_Work_4 gtINDEX21)))
(flet ($x299 (= gtINDEX19 (select gtFIELD__bitsForTID0__gtAGG____anonstruct_D_Work_4 gtINDEX18)))
(flet ($x295 (= gtINDEX17 (select gtFIELD__bitsForTID0__gtAGG____anonstruct_D_Work_4 gtINDEX16)))
(flet ($x291 (= gtINDEX15 (select gtFIELD__bitsForTID0__gtAGG____anonstruct_D_Work_4 gtINDEX14)))
(flet ($x287 (= gtINDEX13 (select gtFIELD__bitsForTID0__gtAGG____anonstruct_D_Work_4 gtINDEX12)))
(flet ($x283 (= gtINDEX11 (select gtFIELD__bitsForTID0__gtAGG____anonstruct_D_Work_4 gtINDEX10)))
(flet ($x279 (= gtINDEX9 (select gtFIELD__bitsForTID0__gtAGG____anonstruct_D_Work_4 gtINDEX8)))
(flet ($x275 (= gtINDEX7 (select gtFIELD__bitsForTID0__gtAGG____anonstruct_D_Work_4 gtINDEX6)))
(flet ($x271 (= gtINDEX5 (select gtFIELD__bitsForTID0__gtAGG____anonstruct_D_Work_4 gtINDEX4)))
(flet ($x267 (= gtINDEX3 (select gtFIELD__bitsForTID0__gtAGG____anonstruct_D_Work_4 gtINDEX2)))
(flet ($x263 (= gtINDEX1 (select gtFIELD__bitsForTID0__gtAGG____anonstruct_D_Work_4 gtINDEX0)))
(let (?x247 (extract[0:0] bv1[32]))
(let (?x257 (store gtFIELD__is_Eng__gtAGG____anonstruct_bitsForTID0_5_1_ gtINDEX74 ?x247))
(flet ($x500 (iff constraint51 (= gtFIELD__is_Eng__gtAGG____anonstruct_bitsForTID0_5_2_ ?x257)))
(let (?x253 (select gtFIELD__is_Eng__gtAGG____anonstruct_bitsForTID0_5_1_ gtINDEX72))
(let (?x248 (store gtFIELD__is_Eng__gtAGG____anonstruct_bitsForTID0_5 gtINDEX70 ?x247))
(flet ($x494 (iff constraint48 (= gtFIELD__is_Eng__gtAGG____anonstruct_bitsForTID0_5_1_ ?x248)))
(let (?x244 (zero_extend[31] (select gtFIELD__is_Eng__gtAGG____anonstruct_bitsForTID0_5 gtINDEX68)))
(let (?x240 (store gtFIELD__sent__gtAGG____anonstruct_D_Work_4_1_ gtINDEX66 bv0[32]))
(flet ($x490 (iff constraint46 (= gtFIELD__sent__gtAGG____anonstruct_D_Work_4_2_ ?x240)))
(let (?x137 (bvmul bv4294967295[32] bv1[32]))
(flet ($x238 (= (select gtFIELD__sent__gtAGG____anonstruct_D_Work_4_1_ gtINDEX65) ?x137))
(flet ($x234 (= (select gtFIELD__sent__gtAGG____anonstruct_D_Work_4_1_ gtINDEX64) bv9[32]))
(flet ($x230 (= (select gtFIELD__sent__gtAGG____anonstruct_D_Work_4_1_ gtINDEX63) bv4[32]))
(let (?x226 (zero_extend[31] (select gtFIELD__is_Eng__gtAGG____anonstruct_bitsForTID0_5 gtINDEX62)))
(let (?x220 (select gtFIELD__is_active_Eng__gtAGG____anonstruct_bitsForTID0_5 gtINDEX60))
(let (?x214 (select gtFIELD__is_active_PURI__gtAGG____anonstruct_bitsForTID0_5 gtINDEX58))
(flet ($x211 (= (select gtFIELD__sent__gtAGG____anonstruct_D_Work_4_1_ gtINDEX56) bv0[32]))
(let (?x206 (select gtFIELD__is_PVRP__gtAGG____anonstruct_bitsForTID0_5 gtINDEX55))
(let (?x201 (select gtFIELD__is_PVRP__gtAGG____anonstruct_bitsForTID0_5 gtINDEX53))
(let (?x196 (select gtFIELD__is_active_PVRP__gtAGG____anonstruct_bitsForTID0_5 gtINDEX51))
(let (?x190 (select gtFIELD__is_active_PPVARP__gtAGG____anonstruct_bitsForTID0_5 gtINDEX49))
(let (?x82 (extract[1:0] bv0[32]))
(let (?x187 (store gtFIELD__is_PLRI__gtAGG____anonstruct_bitsForTID0_5_1_ gtINDEX47 ?x82))
(flet ($x466 (iff constraint34 (= gtFIELD__is_PLRI__gtAGG____anonstruct_bitsForTID0_5_2_ ?x187)))
(let (?x182 (select gtFIELD__is_PLRI__gtAGG____anonstruct_bitsForTID0_5_1_ gtINDEX45))
(let (?x177 (select gtFIELD__is_PLRI__gtAGG____anonstruct_bitsForTID0_5_1_ gtINDEX43))
(let (?x172 (select gtFIELD__is_active_PLRI__gtAGG____anonstruct_bitsForTID0_5 gtINDEX41))
(let (?x169 (store gtFIELD__temporalCounter_i1__gtAGG____anonstruct_D_Work_4 gtINDEX39 bv0[32]))
(flet ($x458 (iff constraint30 (= gtFIELD__temporalCounter_i1__gtAGG____anonstruct_D_Work_4_1_ ?x169)))
(let (?x166 (store gtFIELD__is_PAVI__gtAGG____anonstruct_bitsForTID0_5 gtINDEX38 (extract[2:0] bv2[32])))
(flet ($x456 (iff constraint29 (= gtFIELD__is_PAVI__gtAGG____anonstruct_bitsForTID0_5_1_ ?x166)))
(flet ($x163 (= gtFIELD__n_t__gtAGG____anonstruct_D_Work_4_1_ (store gtFIELD__n_t__gtAGG____anonstruct_D_Work_4 gtINDEX36 bv0[32])))
(let (?x158 (select gtFIELD__is_PAVI__gtAGG____anonstruct_bitsForTID0_5 gtINDEX35))
(let (?x153 (select gtFIELD__is_active_PAVI__gtAGG____anonstruct_bitsForTID0_5 gtINDEX33))
(flet ($x145 (= gtFIELD__sent__gtAGG____anonstruct_D_Work_4_1_ (store gtFIELD__sent__gtAGG____anonstruct_D_Work_4 gtINDEX31 ?x137)))
(flet ($x142 (= (select gtFIELD__sent__gtAGG____anonstruct_D_Work_4 gtINDEX30) bv1[32]))
(flet ($x138 (= (select gtFIELD__sent__gtAGG____anonstruct_D_Work_4 gtINDEX29) ?x137))
(flet ($x132 (= (select gtFIELD__sent__gtAGG____anonstruct_D_Work_4 gtINDEX28) bv9[32]))
(flet ($x127 (= (select gtFIELD__sent__gtAGG____anonstruct_D_Work_4 gtINDEX27) bv4[32]))
(let (?x122 (zero_extend[31] (select gtFIELD__is_Eng__gtAGG____anonstruct_bitsForTID0_5 gtINDEX26)))
(let (?x116 (select gtFIELD__is_active_Eng__gtAGG____anonstruct_bitsForTID0_5 gtINDEX24))
(let (?x110 (select gtFIELD__is_active_PURI__gtAGG____anonstruct_bitsForTID0_5 gtINDEX22))
(flet ($x107 (= (select gtFIELD__sent__gtAGG____anonstruct_D_Work_4 gtINDEX20) bv0[32]))
(let (?x102 (select gtFIELD__is_PVRP__gtAGG____anonstruct_bitsForTID0_5 gtINDEX19))
(let (?x97 (select gtFIELD__is_PVRP__gtAGG____anonstruct_bitsForTID0_5 gtINDEX17))
(let (?x92 (select gtFIELD__is_active_PVRP__gtAGG____anonstruct_bitsForTID0_5 gtINDEX15))
(let (?x86 (select gtFIELD__is_active_PPVARP__gtAGG____anonstruct_bitsForTID0_5 gtINDEX13))
(let (?x83 (store gtFIELD__is_PLRI__gtAGG____anonstruct_bitsForTID0_5 gtINDEX11 ?x82))
(flet ($x414 (iff constraint8 (= gtFIELD__is_PLRI__gtAGG____anonstruct_bitsForTID0_5_1_ ?x83)))
(let (?x78 (zero_extend[30] (select gtFIELD__is_PLRI__gtAGG____anonstruct_bitsForTID0_5 gtINDEX9)))
(let (?x73 (zero_extend[30] (select gtFIELD__is_PLRI__gtAGG____anonstruct_bitsForTID0_5 gtINDEX7)))
(let (?x67 (select gtFIELD__is_active_PLRI__gtAGG____anonstruct_bitsForTID0_5 gtINDEX5))
(let (?x57 (zero_extend[29] (select gtFIELD__is_PAVI__gtAGG____anonstruct_bitsForTID0_5 gtINDEX3)))
(let (?x50 (select gtFIELD__is_active_PAVI__gtAGG____anonstruct_bitsForTID0_5 gtINDEX1))
(flet ($x651 (and (iff constraint0 (not (= sfEvent_ bv8[32]))) (iff constraint1 (not (= (zero_extend[31] ?x50) bv0[32]))) (iff constraint2 (= ?x57 bv1[32])) (iff constraint3 (not (= sfEvent_ bv2[32]))) (iff constraint4 (not (= sfEvent_ bv3[32]))) (iff constraint5 (not (= (zero_extend[31] ?x67) bv0[32]))) (iff constraint6 (not (= ?x73 bv1[32]))) (iff constraint7 (not (= ?x78 bv2[32]))) $x414 (iff constraint9 (not (not (= (zero_extend[31] ?x86) bv0[32])))) (iff constraint10 (not (= (zero_extend[31] ?x92) bv0[32]))) (iff constraint11 (not (= (zero_extend[30] ?x97) bv1[32]))) (iff constraint12 (= (zero_extend[30] ?x102) bv2[32])) (iff constraint13 (not $x107)) (iff constraint14 (not (not (= (zero_extend[31] ?x110) bv0[32])))) (iff constraint15 (not (= (zero_extend[31] ?x116) bv0[32]))) (iff constraint16 (= ?x122 bv1[32])) (iff constraint17 (not $x127)) (iff constraint18 (not $x132)) (iff constraint19 (not $x138)) (iff constraint20 $x142) (iff constraint21 $x145) (iff constraint22 (= sf_previousEvent_1_ sfEvent_)) (iff constraint23 (= sfEvent__1_ bv2[32])) (iff constraint24 (not (= sfEvent__1_ bv8[32]))) (iff constraint25 (not (= (zero_extend[31] ?x153) bv0[32]))) (iff constraint26 (= (zero_extend[29] ?x158) bv1[32])) (iff constraint27 (= sfEvent__1_ bv2[32])) (iff constraint28 $x163) $x456 $x458 (iff constraint31 (not (= (zero_extend[31] ?x172) bv0[32]))) (iff constraint32 (not (= (zero_extend[30] ?x177) bv1[32]))) (iff constraint33 (not (= (zero_extend[30] ?x182) bv2[32]))) $x466 (iff constraint35 (not (not (= (zero_extend[31] ?x190) bv0[32])))) (iff constraint36 (not (= (zero_extend[31] ?x196) bv0[32]))) (iff constraint37 (not (= (zero_extend[30] ?x201) bv1[32]))) (iff constraint38 (= (zero_extend[30] ?x206) bv2[32])) (iff constraint39 (not $x211)) (iff constraint40 (not (not (= (zero_extend[31] ?x214) bv0[32])))) (iff constraint41 (not (= (zero_extend[31] ?x220) bv0[32]))) (iff constraint42 (= ?x226 bv1[32])) (iff constraint43 (not $x230)) (iff constraint44 (not $x234)) (iff constraint45 $x238) $x490 (iff constraint47 (= ?x244 bv1[32])) $x494 (iff constraint49 (= sfEvent__2_ sf_previousEvent_1_)) (iff constraint50 (= (zero_extend[31] ?x253) bv1[32])) $x500 (iff constraint52 (= gtINDEX0 gtAGG__rtDWork)) (iff constraint53 $x263) (iff constraint54 (= gtINDEX2 gtAGG__rtDWork)) (iff constraint55 $x267) (iff constraint56 (= gtINDEX4 gtAGG__rtDWork)) (iff constraint57 $x271) (iff constraint58 (= gtINDEX6 gtAGG__rtDWork)) (iff constraint59 $x275) (iff constraint60 (= gtINDEX8 gtAGG__rtDWork)) (iff constraint61 $x279) (iff constraint62 (= gtINDEX10 gtAGG__rtDWork)) (iff constraint63 $x283) (iff constraint64 (= gtINDEX12 gtAGG__rtDWork)) (iff constraint65 $x287) (iff constraint66 (= gtINDEX14 gtAGG__rtDWork)) (iff constraint67 $x291) (iff constraint68 (= gtINDEX16 gtAGG__rtDWork)) (iff constraint69 $x295) (iff constraint70 (= gtINDEX18 gtAGG__rtDWork)) (iff constraint71 $x299) (iff constraint72 (= gtINDEX20 gtAGG__rtDWork)) (iff constraint73 (= gtINDEX21 gtAGG__rtDWork)) (iff constraint74 $x304) (iff constraint75 (= gtINDEX23 gtAGG__rtDWork)) (iff constraint76 $x308) (iff constraint77 (= gtINDEX25 gtAGG__rtDWork)) (iff constraint78 $x312) (iff constraint79 (= gtINDEX27 gtAGG__rtDWork)) (iff constraint80 (= gtINDEX28 gtAGG__rtDWork)) (iff constraint81 (= gtINDEX29 gtAGG__rtDWork)) (iff constraint82 (= gtINDEX30 gtAGG__rtDWork)) (iff constraint83 (= gtINDEX31 gtAGG__rtDWork)) (iff constraint84 (= gtINDEX32 gtAGG__rtDWork)) (iff constraint85 $x321) (iff constraint86 (= gtINDEX34 gtAGG__rtDWork)) (iff constraint87 $x325) (iff constraint88 (= gtINDEX36 gtAGG__rtDWork)) (iff constraint89 (= gtINDEX37 gtAGG__rtDWork)) (iff constraint90 $x330) (iff constraint91 (= gtINDEX39 gtAGG__rtDWork)) (iff constraint92 (= gtINDEX40 gtAGG__rtDWork)) (iff constraint93 $x335) (iff constraint94 (= gtINDEX42 gtAGG__rtDWork)) (iff constraint95 $x339) (iff constraint96 (= gtINDEX44 gtAGG__rtDWork)) (iff constraint97 $x343) (iff constraint98 (= gtINDEX46 gtAGG__rtDWork)) (iff constraint99 $x347) (iff constraint100 (= gtINDEX48 gtAGG__rtDWork)) (iff constraint101 $x351) (iff constraint102 (= gtINDEX50 gtAGG__rtDWork)) (iff constraint103 $x355) (iff constraint104 (= gtINDEX52 gtAGG__rtDWork)) (iff constraint105 $x359) (iff constraint106 (= gtINDEX54 gtAGG__rtDWork)) (iff constraint107 $x363) (iff constraint108 (= gtINDEX56 gtAGG__rtDWork)) (iff constraint109 (= gtINDEX57 gtAGG__rtDWork)) (iff constraint110 $x368) (iff constraint111 (= gtINDEX59 gtAGG__rtDWork)) (iff constraint112 $x372) (iff constraint113 (= gtINDEX61 gtAGG__rtDWork)) (iff constraint114 $x376) (iff constraint115 (= gtINDEX63 gtAGG__rtDWork)) (iff constraint116 (= gtINDEX64 gtAGG__rtDWork)) (iff constraint117 (= gtINDEX65 gtAGG__rtDWork)) (iff constraint118 (= gtINDEX66 gtAGG__rtDWork)) (iff constraint119 (= gtINDEX67 gtAGG__rtDWork)) (iff constraint120 $x384) (iff constraint121 (= gtINDEX69 gtAGG__rtDWork)) (iff constraint122 $x388) (iff constraint123 (= gtINDEX71 gtAGG__rtDWork)) (iff constraint124 $x392) (iff constraint125 (= gtINDEX73 gtAGG__rtDWork)) (iff constraint126 $x396)))
(and $x651 $x652))))))))))))))))))))))))))))))))))))))))))))))))))))))))))))))))))))))))))))))))))))))))
)
